3
5
0 422 356 394 158 
422 0 146 813 275 
356 146 0 724 197 
394 813 724 0 538 
158 275 197 538 0 
0 956 775 596 398 
956 0 504 739 742 
775 504 0 286 404 
596 739 286 0 200 
398 742 404 200 0 
0 268 501 1031 496 
268 0 273 806 260 
501 273 0 816 362 
1031 806 816 0 545 
496 260 362 545 0 
